Route #1: 130 171 6 132 78 162 63 149 170 10 25 104 164 35 77 122 181 62 5 197 42 172 138 46 159 26 20 186 135 96 79 120 73 93 146 19 193 141 185 2 76 34 175
Route #2: 150 187 163 28 153 49 14 47 200 103 7 68 18 179 15 183 190 167 61 198 91 111 145 51 27 126 80 110 178 90 44 116 95 83 148 36 39
Route #3: 142 24 131 48 136 3 180 43 124 156 102 196 184 152 169 72 161 119 98 16 40 147 133 57 182 195 41 129 22 70 106 55 81 107 194 158 154
Route #4: 140 54 89 100 37 9 59 143 188 29 173 177 65 168 99 94 151 160 109 189 128 125 165 85 86 114 45 56 108 38 32 117 23 31 52 74 101 53 192 112 50 157 33 66 82
Route #5: 4 92 166 21 139 12 155 88 191 113 84 199 127 118 105 69 176 58 134 174 17 87 121 115 144 11 71 123 137 13 75 8 60 1 97 30 64 67
Cost 1989.2
